
%FILE DATA:	Soccer Computational Problem for MiniZinc Models	%
%AUTHOR:	Jack Wall	%
%CONTACT:  	116397063@umail.ucc.ie			%
%LAST UPDATE:	02/24/2020, 18:51:12						%
%DESCRIPTION: 	49 games played with 23 games left				%


n=9; %number of teams

%Games to play
games=[|4,5|5,4|7,8|3,8|5,9|4,2|4,7|8,9|8,1|5,6|3,1|6,1|9,3|3,2|1,4|3,9|8,4|7,9|1,7|9,4|7,4|2,3|7,2|];

%Initial points
iPoints=[20,11,13,14,16,19,10,19,10];

%POSITION CONSTRAINTS
% [|teamID, operator, position|...]
% operators index:
%  1 for =  operator
%  2 for >  operator
%  3 for >= operator
%  4 for <  operator
%  5 for <= operator
positionConstraints=[|4,3,1|7,3,2|];